c 
c G(k,n,p) graph
c graph gen seed     : 9436
c number of vertices : 70
c max number of edges: 1225
c number of classes  : 2
c edge density       : 0.300000
c edge probability   : 0.600000
c data structure     : dense
c
c           Graph Stats
c number of vertices  : 70
c nonisolated vertices: 70
c number of edges     : 702
c edge density        : 0.290683
c max degree          : 27
c avg degree          : 20.06
c min degree          : 14
p col 70 702
e 1 2
e 1 8
e 1 10
e 1 12
e 1 15
e 1 23
e 1 25
e 1 33
e 1 34
e 1 35
e 1 36
e 1 40
e 1 41
e 1 43
e 1 45
e 1 48
e 1 50
e 1 56
e 1 59
e 1 61
e 1 63
e 1 66
e 1 70
e 2 3
e 2 4
e 2 5
e 2 6
e 2 9
e 2 11
e 2 14
e 2 16
e 2 26
e 2 27
e 2 31
e 2 37
e 2 38
e 2 46
e 2 49
e 2 52
e 2 54
e 2 55
e 2 60
e 2 62
e 2 64
e 2 69
e 3 8
e 3 10
e 3 12
e 3 15
e 3 18
e 3 19
e 3 22
e 3 23
e 3 32
e 3 34
e 3 35
e 3 39
e 3 40
e 3 41
e 3 43
e 3 48
e 3 50
e 3 51
e 3 56
e 3 59
e 3 61
e 3 63
e 3 65
e 3 66
e 3 70
e 4 8
e 4 10
e 4 15
e 4 17
e 4 18
e 4 19
e 4 20
e 4 23
e 4 25
e 4 30
e 4 35
e 4 36
e 4 39
e 4 40
e 4 41
e 4 45
e 4 59
e 4 61
e 4 63
e 4 65
e 4 66
e 4 70
e 5 8
e 5 10
e 5 15
e 5 17
e 5 19
e 5 20
e 5 22
e 5 25
e 5 30
e 5 34
e 5 45
e 5 48
e 5 51
e 5 56
e 5 63
e 5 65
e 5 66
e 6 8
e 6 10
e 6 12
e 6 18
e 6 19
e 6 22
e 6 23
e 6 32
e 6 33
e 6 35
e 6 43
e 6 45
e 6 50
e 6 56
e 6 61
e 6 63
e 6 70
e 7 19
e 7 22
e 7 23
e 7 30
e 7 32
e 7 33
e 7 34
e 7 35
e 7 39
e 7 43
e 7 51
e 7 56
e 7 63
e 7 65
e 7 70
e 8 9
e 8 13
e 8 16
e 8 21
e 8 24
e 8 26
e 8 27
e 8 28
e 8 37
e 8 38
e 8 44
e 8 46
e 8 53
e 8 54
e 8 57
e 8 62
e 8 67
e 8 68
e 9 10
e 9 18
e 9 20
e 9 22
e 9 23
e 9 25
e 9 30
e 9 34
e 9 39
e 9 40
e 9 43
e 9 56
e 9 59
e 9 61
e 9 65
e 9 66
e 9 70
e 10 13
e 10 14
e 10 21
e 10 26
e 10 28
e 10 29
e 10 31
e 10 37
e 10 38
e 10 49
e 10 53
e 10 55
e 10 57
e 10 58
e 10 64
e 10 67
e 11 17
e 11 19
e 11 23
e 11 25
e 11 33
e 11 34
e 11 35
e 11 36
e 11 40
e 11 43
e 11 45
e 11 48
e 11 50
e 11 56
e 11 59
e 11 63
e 11 65
e 11 70
e 12 14
e 12 16
e 12 21
e 12 26
e 12 28
e 12 29
e 12 38
e 12 42
e 12 46
e 12 47
e 12 54
e 12 55
e 12 60
e 12 67
e 12 68
e 13 15
e 13 17
e 13 22
e 13 23
e 13 25
e 13 32
e 13 40
e 13 41
e 13 43
e 13 45
e 13 51
e 13 61
e 13 70
e 14 15
e 14 19
e 14 20
e 14 22
e 14 23
e 14 25
e 14 32
e 14 34
e 14 35
e 14 43
e 14 45
e 14 51
e 14 56
e 14 61
e 14 65
e 15 16
e 15 24
e 15 26
e 15 29
e 15 37
e 15 38
e 15 44
e 15 47
e 15 52
e 15 55
e 15 60
e 15 64
e 15 68
e 15 69
e 16 18
e 16 23
e 16 30
e 16 32
e 16 33
e 16 34
e 16 35
e 16 39
e 16 40
e 16 41
e 16 45
e 16 48
e 16 51
e 16 56
e 16 59
e 16 61
e 16 63
e 16 65
e 16 70
e 17 21
e 17 24
e 17 27
e 17 29
e 17 31
e 17 46
e 17 52
e 17 53
e 17 57
e 17 58
e 17 62
e 17 64
e 17 67
e 17 68
e 18 24
e 18 27
e 18 29
e 18 42
e 18 44
e 18 49
e 18 52
e 18 57
e 18 60
e 18 62
e 18 68
e 19 24
e 19 26
e 19 27
e 19 28
e 19 31
e 19 38
e 19 46
e 19 52
e 19 53
e 19 54
e 19 57
e 19 60
e 19 62
e 19 64
e 19 68
e 20 21
e 20 26
e 20 27
e 20 31
e 20 37
e 20 38
e 20 42
e 20 44
e 20 52
e 20 53
e 20 55
e 20 58
e 20 62
e 20 67
e 20 68
e 20 69
e 21 23
e 21 25
e 21 30
e 21 33
e 21 35
e 21 36
e 21 40
e 21 41
e 21 43
e 21 50
e 21 51
e 21 56
e 21 59
e 21 61
e 21 63
e 21 70
e 22 26
e 22 28
e 22 47
e 22 49
e 22 55
e 22 57
e 22 62
e 22 64
e 22 67
e 22 68
e 23 24
e 23 27
e 23 28
e 23 29
e 23 31
e 23 42
e 23 44
e 23 49
e 23 52
e 23 57
e 23 60
e 23 64
e 23 69
e 24 30
e 24 32
e 24 35
e 24 36
e 24 39
e 24 40
e 24 41
e 24 45
e 24 50
e 24 51
e 24 56
e 24 61
e 24 63
e 24 66
e 24 70
e 25 26
e 25 28
e 25 29
e 25 38
e 25 42
e 25 44
e 25 52
e 25 53
e 25 54
e 25 55
e 25 58
e 25 60
e 25 64
e 25 67
e 25 68
e 25 69
e 26 32
e 26 33
e 26 34
e 26 35
e 26 40
e 26 43
e 26 45
e 26 51
e 26 56
e 26 59
e 26 70
e 27 30
e 27 33
e 27 39
e 27 40
e 27 41
e 27 45
e 27 50
e 27 51
e 27 56
e 27 59
e 27 66
e 27 70
e 28 30
e 28 32
e 28 34
e 28 36
e 28 40
e 28 41
e 28 48
e 28 56
e 28 59
e 28 61
e 28 65
e 29 32
e 29 33
e 29 34
e 29 39
e 29 41
e 29 43
e 29 45
e 29 48
e 29 51
e 29 56
e 29 61
e 29 65
e 29 66
e 30 31
e 30 37
e 30 38
e 30 46
e 30 47
e 30 52
e 30 57
e 30 58
e 30 64
e 30 67
e 30 68
e 31 33
e 31 35
e 31 40
e 31 43
e 31 48
e 31 50
e 31 51
e 31 56
e 31 59
e 31 61
e 31 65
e 31 66
e 31 70
e 32 37
e 32 38
e 32 47
e 32 53
e 32 57
e 32 58
e 32 60
e 32 62
e 32 67
e 32 68
e 32 69
e 33 46
e 33 52
e 33 54
e 33 58
e 33 60
e 33 62
e 33 64
e 33 67
e 33 68
e 33 69
e 34 37
e 34 42
e 34 46
e 34 47
e 34 49
e 34 52
e 34 54
e 34 55
e 34 57
e 34 60
e 34 64
e 34 67
e 34 68
e 34 69
e 35 42
e 35 44
e 35 46
e 35 47
e 35 49
e 35 54
e 35 55
e 35 58
e 35 62
e 35 67
e 35 68
e 35 69
e 36 47
e 36 49
e 36 53
e 36 54
e 36 55
e 36 58
e 36 60
e 36 64
e 37 39
e 37 41
e 37 45
e 37 48
e 37 50
e 37 63
e 37 65
e 37 70
e 38 41
e 38 50
e 38 51
e 38 59
e 38 61
e 38 63
e 39 53
e 39 54
e 39 55
e 39 57
e 39 58
e 39 64
e 39 67
e 39 68
e 39 69
e 40 42
e 40 44
e 40 46
e 40 47
e 40 55
e 40 58
e 40 60
e 40 62
e 40 67
e 40 68
e 41 42
e 41 54
e 41 57
e 41 60
e 41 62
e 41 64
e 41 67
e 41 68
e 42 43
e 42 45
e 42 48
e 42 50
e 42 51
e 42 56
e 42 59
e 42 63
e 42 65
e 42 66
e 42 70
e 43 47
e 43 53
e 43 55
e 43 62
e 43 64
e 43 67
e 44 48
e 44 51
e 44 59
e 44 61
e 44 63
e 44 66
e 45 47
e 45 49
e 45 52
e 45 54
e 45 55
e 45 58
e 45 60
e 45 64
e 45 68
e 45 69
e 46 48
e 46 61
e 46 66
e 46 70
e 47 51
e 47 56
e 47 61
e 47 65
e 47 66
e 48 49
e 48 52
e 48 53
e 48 54
e 48 55
e 48 58
e 48 60
e 48 62
e 48 68
e 49 51
e 49 56
e 49 65
e 49 66
e 49 70
e 50 52
e 50 53
e 50 55
e 50 57
e 50 60
e 50 67
e 50 69
e 51 52
e 51 55
e 51 58
e 51 60
e 51 62
e 51 64
e 51 67
e 51 69
e 52 56
e 52 63
e 52 66
e 52 70
e 53 59
e 53 61
e 53 63
e 53 70
e 54 59
e 54 61
e 54 63
e 54 70
e 55 56
e 55 59
e 55 63
e 55 65
e 55 66
e 55 70
e 56 57
e 56 58
e 56 60
e 56 62
e 56 67
e 56 69
e 57 59
e 57 65
e 57 66
e 58 59
e 58 66
e 59 60
e 59 64
e 60 61
e 60 65
e 60 66
e 60 70
e 61 62
e 61 64
e 61 67
e 61 69
e 62 63
e 62 65
e 62 66
e 62 70
e 63 64
e 63 67
e 63 68
e 64 65
e 65 68
e 66 67
e 67 70
e 68 70
e 69 70
